
Gurobi 5.0.2 (win32) logging started 03/24/13 17:34:23


Gurobi 5.0.2 (win32) logging started 03/24/13 17:34:23


Gurobi 5.0.2 (win32) logging started 03/24/13 17:34:23


Gurobi 5.0.2 (win32) logging started 03/24/13 17:34:23


Gurobi 5.0.2 (win32) logging started 03/24/13 17:34:23


Gurobi 5.0.2 (win32) logging started 03/24/13 17:34:23


Gurobi 5.0.2 (win32) logging started 03/24/13 17:34:23


Gurobi 5.0.2 (win32) logging started 03/24/13 17:34:23


Gurobi 5.0.2 (win32) logging started 03/24/13 17:34:23


Gurobi 5.0.2 (win32) logging started 03/24/13 17:34:23


Gurobi 5.0.2 (win32) logging started 03/24/13 17:34:23


Gurobi 5.0.2 (win32) logging started 03/24/13 17:34:23


Gurobi 5.0.2 (win32) logging started 03/24/13 17:34:24


Gurobi 5.0.2 (win32) logging started 03/24/13 17:34:24


Gurobi 5.0.2 (win32) logging started 03/24/13 17:34:24


Gurobi 5.0.2 (win32) logging started 03/24/13 17:34:24


Gurobi 5.0.2 (win32) logging started 03/24/13 17:34:24


Gurobi 5.0.2 (win32) logging started 03/24/13 17:34:24


Gurobi 5.0.2 (win32) logging started 03/24/13 17:34:24


Gurobi 5.0.2 (win32) logging started 03/24/13 17:34:25


Gurobi 5.0.2 (win32) logging started 03/24/13 17:34:26


Gurobi 5.0.2 (win32) logging started 03/24/13 17:34:26


Gurobi 5.0.2 (win32) logging started 03/24/13 17:34:26


Gurobi 5.0.2 (win32) logging started 03/24/13 17:34:26


Gurobi 5.0.2 (win32) logging started 03/24/13 17:34:27


Gurobi 5.0.2 (win32) logging started 03/24/13 17:34:27


Gurobi 5.0.2 (win32) logging started 03/24/13 17:34:27


Gurobi 5.0.2 (win32) logging started 03/24/13 17:34:27


Gurobi 5.0.2 (win32) logging started 03/24/13 17:34:27


Gurobi 5.0.2 (win32) logging started 03/24/13 17:34:27


Gurobi 5.0.2 (win32) logging started 03/24/13 17:34:28


Gurobi 5.0.2 (win32) logging started 03/24/13 17:34:30


Gurobi 5.0.2 (win32) logging started 03/24/13 17:34:36


Gurobi 5.0.2 (win32) logging started 03/24/13 17:34:37


Gurobi 5.0.2 (win32) logging started 03/24/13 17:34:37


Gurobi 5.0.2 (win32) logging started 03/24/13 17:34:39


Gurobi 5.0.2 (win32) logging started 03/24/13 17:34:44


Gurobi 5.0.2 (win32) logging started 03/24/13 17:36:46


Gurobi 5.0.2 (win32) logging started 03/24/13 17:36:46


Gurobi 5.0.2 (win32) logging started 03/24/13 17:36:46


Gurobi 5.0.2 (win32) logging started 03/24/13 17:36:46


Gurobi 5.0.2 (win32) logging started 03/24/13 17:36:46


Gurobi 5.0.2 (win32) logging started 03/24/13 17:36:46


Gurobi 5.0.2 (win32) logging started 03/24/13 17:36:46


Gurobi 5.0.2 (win32) logging started 03/24/13 17:36:47


Gurobi 5.0.2 (win32) logging started 03/24/13 17:36:47


Gurobi 5.0.2 (win32) logging started 03/24/13 17:36:47


Gurobi 5.0.2 (win32) logging started 03/24/13 17:36:47


Gurobi 5.0.2 (win32) logging started 03/24/13 17:36:47


Gurobi 5.0.2 (win32) logging started 03/24/13 17:36:47


Gurobi 5.0.2 (win32) logging started 03/24/13 17:36:47


Gurobi 5.0.2 (win32) logging started 03/24/13 17:36:47


Gurobi 5.0.2 (win32) logging started 03/24/13 17:36:47


Gurobi 5.0.2 (win32) logging started 03/24/13 17:36:47


Gurobi 5.0.2 (win32) logging started 03/24/13 17:36:47


Gurobi 5.0.2 (win32) logging started 03/24/13 17:36:47


Gurobi 5.0.2 (win32) logging started 03/24/13 17:36:48


Gurobi 5.0.2 (win32) logging started 03/24/13 17:36:48


Gurobi 5.0.2 (win32) logging started 03/24/13 17:36:48


Gurobi 5.0.2 (win32) logging started 03/24/13 17:36:48


Gurobi 5.0.2 (win32) logging started 03/24/13 17:36:48


Gurobi 5.0.2 (win32) logging started 03/24/13 17:36:49


Gurobi 5.0.2 (win32) logging started 03/24/13 17:36:49


Gurobi 5.0.2 (win32) logging started 03/24/13 17:36:49


Gurobi 5.0.2 (win32) logging started 03/24/13 17:36:49


Gurobi 5.0.2 (win32) logging started 03/24/13 17:36:49


Gurobi 5.0.2 (win32) logging started 03/24/13 17:36:49


Gurobi 5.0.2 (win32) logging started 03/24/13 17:36:49


Gurobi 5.0.2 (win32) logging started 03/24/13 17:36:50


Gurobi 5.0.2 (win32) logging started 03/24/13 17:36:52


Gurobi 5.0.2 (win32) logging started 03/24/13 17:36:52


Gurobi 5.0.2 (win32) logging started 03/24/13 17:36:52


Gurobi 5.0.2 (win32) logging started 03/24/13 17:36:53


Gurobi 5.0.2 (win32) logging started 03/24/13 17:44:34


Gurobi 5.0.2 (win32) logging started 03/24/13 17:44:34


Gurobi 5.0.2 (win32) logging started 03/24/13 17:44:34


Gurobi 5.0.2 (win32) logging started 03/24/13 17:44:34


Gurobi 5.0.2 (win32) logging started 03/24/13 17:44:34


Gurobi 5.0.2 (win32) logging started 03/24/13 17:44:34


Gurobi 5.0.2 (win32) logging started 03/24/13 17:44:34


Gurobi 5.0.2 (win32) logging started 03/24/13 17:44:35


Gurobi 5.0.2 (win32) logging started 03/24/13 17:44:35


Gurobi 5.0.2 (win32) logging started 03/24/13 17:44:35


Gurobi 5.0.2 (win32) logging started 03/24/13 17:44:35


Gurobi 5.0.2 (win32) logging started 03/24/13 17:44:35


Gurobi 5.0.2 (win32) logging started 03/24/13 17:44:35


Gurobi 5.0.2 (win32) logging started 03/24/13 17:44:35


Gurobi 5.0.2 (win32) logging started 03/24/13 17:44:35


Gurobi 5.0.2 (win32) logging started 03/24/13 17:44:35


Gurobi 5.0.2 (win32) logging started 03/24/13 17:44:35


Gurobi 5.0.2 (win32) logging started 03/24/13 17:44:35


Gurobi 5.0.2 (win32) logging started 03/24/13 17:44:35


Gurobi 5.0.2 (win32) logging started 03/24/13 17:44:35


Gurobi 5.0.2 (win32) logging started 03/24/13 17:44:36


Gurobi 5.0.2 (win32) logging started 03/24/13 17:44:36


Gurobi 5.0.2 (win32) logging started 03/24/13 17:44:36


Gurobi 5.0.2 (win32) logging started 03/24/13 17:44:37


Gurobi 5.0.2 (win32) logging started 03/24/13 17:44:37


Gurobi 5.0.2 (win32) logging started 03/24/13 17:44:37


Gurobi 5.0.2 (win32) logging started 03/24/13 17:44:37


Gurobi 5.0.2 (win32) logging started 03/24/13 17:44:37


Gurobi 5.0.2 (win32) logging started 03/24/13 17:44:38


Gurobi 5.0.2 (win32) logging started 03/24/13 17:44:38


Gurobi 5.0.2 (win32) logging started 03/24/13 17:44:38


Gurobi 5.0.2 (win32) logging started 03/24/13 17:44:38


Gurobi 5.0.2 (win32) logging started 03/24/13 17:44:26


Gurobi 5.0.2 (win32) logging started 03/24/13 17:44:26


Gurobi 5.0.2 (win32) logging started 03/24/13 17:44:26


Gurobi 5.0.2 (win32) logging started 03/24/13 17:44:27


Gurobi 5.0.2 (win32) logging started 03/24/13 17:44:30


Gurobi 5.0.2 (win32) logging started 03/24/13 17:44:30


Gurobi 5.0.2 (win32) logging started 03/24/13 17:44:30


Gurobi 5.0.2 (win32) logging started 03/24/13 17:44:30


Gurobi 5.0.2 (win32) logging started 03/24/13 17:44:30


Gurobi 5.0.2 (win32) logging started 03/24/13 17:44:30


Gurobi 5.0.2 (win32) logging started 03/24/13 17:44:30


Gurobi 5.0.2 (win32) logging started 03/24/13 17:44:30


Gurobi 5.0.2 (win32) logging started 03/24/13 17:44:30


Gurobi 5.0.2 (win32) logging started 03/24/13 17:44:30


Gurobi 5.0.2 (win32) logging started 03/24/13 17:44:30


Gurobi 5.0.2 (win32) logging started 03/24/13 17:44:30


Gurobi 5.0.2 (win32) logging started 03/24/13 17:44:30


Gurobi 5.0.2 (win32) logging started 03/24/13 17:44:30


Gurobi 5.0.2 (win32) logging started 03/24/13 17:44:30


Gurobi 5.0.2 (win32) logging started 03/24/13 17:44:30


Gurobi 5.0.2 (win32) logging started 03/24/13 17:44:30


Gurobi 5.0.2 (win32) logging started 03/24/13 17:44:30


Gurobi 5.0.2 (win32) logging started 03/24/13 17:44:31


Gurobi 5.0.2 (win32) logging started 03/24/13 17:44:31


Gurobi 5.0.2 (win32) logging started 03/24/13 17:44:31


Gurobi 5.0.2 (win32) logging started 03/24/13 17:44:31


Gurobi 5.0.2 (win32) logging started 03/24/13 17:44:31


Gurobi 5.0.2 (win32) logging started 03/24/13 17:44:31


Gurobi 5.0.2 (win32) logging started 03/24/13 17:44:31


Gurobi 5.0.2 (win32) logging started 03/24/13 17:44:31


Gurobi 5.0.2 (win32) logging started 03/24/13 17:44:32


Gurobi 5.0.2 (win32) logging started 03/24/13 17:44:32


Gurobi 5.0.2 (win32) logging started 03/24/13 17:44:32


Gurobi 5.0.2 (win32) logging started 03/24/13 17:44:32


Gurobi 5.0.2 (win32) logging started 03/24/13 17:44:32


Gurobi 5.0.2 (win32) logging started 03/24/13 17:44:32


Gurobi 5.0.2 (win32) logging started 03/24/13 17:44:33


Gurobi 5.0.2 (win32) logging started 03/24/13 17:44:33


Gurobi 5.0.2 (win32) logging started 03/24/13 17:44:33


Gurobi 5.0.2 (win32) logging started 03/24/13 17:44:34


Gurobi 5.0.2 (win32) logging started 03/24/13 17:44:34


Gurobi 5.0.2 (win32) logging started 03/24/13 17:44:34


Gurobi 5.0.2 (win32) logging started 03/24/13 17:44:34


Gurobi 5.0.2 (win32) logging started 03/24/13 17:44:35


Gurobi 5.0.2 (win32) logging started 03/24/13 17:44:35


Gurobi 5.0.2 (win32) logging started 03/24/13 17:44:35


Gurobi 5.0.2 (win32) logging started 03/24/13 17:44:35


Gurobi 5.0.2 (win32) logging started 03/24/13 17:44:35


Gurobi 5.0.2 (win32) logging started 03/24/13 17:44:35


Gurobi 5.0.2 (win32) logging started 03/24/13 17:44:35


Gurobi 5.0.2 (win32) logging started 03/24/13 17:44:35


Gurobi 5.0.2 (win32) logging started 03/24/13 17:44:35


Gurobi 5.0.2 (win32) logging started 03/24/13 17:44:35


Gurobi 5.0.2 (win32) logging started 03/24/13 17:44:35


Gurobi 5.0.2 (win32) logging started 03/24/13 17:44:35


Gurobi 5.0.2 (win32) logging started 03/24/13 17:44:35


Gurobi 5.0.2 (win32) logging started 03/24/13 17:44:35


Gurobi 5.0.2 (win32) logging started 03/24/13 17:44:35


Gurobi 5.0.2 (win32) logging started 03/24/13 17:44:35


Gurobi 5.0.2 (win32) logging started 03/24/13 17:44:35


Gurobi 5.0.2 (win32) logging started 03/24/13 17:44:35


Gurobi 5.0.2 (win32) logging started 03/24/13 17:44:35


Gurobi 5.0.2 (win32) logging started 03/24/13 17:44:35


Gurobi 5.0.2 (win32) logging started 03/24/13 17:44:35


Gurobi 5.0.2 (win32) logging started 03/24/13 17:44:36


Gurobi 5.0.2 (win32) logging started 03/24/13 17:44:36


Gurobi 5.0.2 (win32) logging started 03/24/13 17:44:36


Gurobi 5.0.2 (win32) logging started 03/24/13 17:44:36


Gurobi 5.0.2 (win32) logging started 03/24/13 17:44:36


Gurobi 5.0.2 (win32) logging started 03/24/13 17:44:36


Gurobi 5.0.2 (win32) logging started 03/24/13 17:44:36


Gurobi 5.0.2 (win32) logging started 03/24/13 17:44:36


Gurobi 5.0.2 (win32) logging started 03/24/13 17:44:37


Gurobi 5.0.2 (win32) logging started 03/24/13 17:44:37


Gurobi 5.0.2 (win32) logging started 03/24/13 17:44:37


Gurobi 5.0.2 (win32) logging started 03/24/13 17:44:37


Gurobi 5.0.2 (win32) logging started 03/24/13 17:44:38


Gurobi 5.0.2 (win32) logging started 03/24/13 17:44:38


Gurobi 5.0.2 (win32) logging started 03/24/13 17:44:38


Gurobi 5.0.2 (win32) logging started 03/24/13 17:44:38


Gurobi 5.0.2 (win32) logging started 03/24/13 17:44:38


Gurobi 5.0.2 (win32) logging started 03/24/13 17:44:38


Gurobi 5.0.2 (win32) logging started 03/24/13 17:44:38


Gurobi 5.0.2 (win32) logging started 03/24/13 17:44:38


Gurobi 5.0.2 (win32) logging started 03/24/13 17:44:38


Gurobi 5.0.2 (win32) logging started 03/24/13 17:44:38


Gurobi 5.0.2 (win32) logging started 03/24/13 17:44:38


Gurobi 5.0.2 (win32) logging started 03/24/13 17:44:38


Gurobi 5.0.2 (win32) logging started 03/24/13 17:44:38


Gurobi 5.0.2 (win32) logging started 03/24/13 17:44:38


Gurobi 5.0.2 (win32) logging started 03/24/13 17:44:38


Gurobi 5.0.2 (win32) logging started 03/24/13 17:44:38


Gurobi 5.0.2 (win32) logging started 03/24/13 17:44:38


Gurobi 5.0.2 (win32) logging started 03/24/13 17:44:38


Gurobi 5.0.2 (win32) logging started 03/24/13 17:44:38


Gurobi 5.0.2 (win32) logging started 03/24/13 17:44:38


Gurobi 5.0.2 (win32) logging started 03/24/13 17:44:38


Gurobi 5.0.2 (win32) logging started 03/24/13 17:44:38


Gurobi 5.0.2 (win32) logging started 03/24/13 17:44:38


Gurobi 5.0.2 (win32) logging started 03/24/13 17:44:38


Gurobi 5.0.2 (win32) logging started 03/24/13 17:44:38


Gurobi 5.0.2 (win32) logging started 03/24/13 17:44:38


Gurobi 5.0.2 (win32) logging started 03/24/13 17:44:38


Gurobi 5.0.2 (win32) logging started 03/24/13 17:44:39


Gurobi 5.0.2 (win32) logging started 03/24/13 17:44:39


Gurobi 5.0.2 (win32) logging started 03/24/13 17:44:39


Gurobi 5.0.2 (win32) logging started 03/24/13 17:44:39


Gurobi 5.0.2 (win32) logging started 03/24/13 17:44:39


Gurobi 5.0.2 (win32) logging started 03/24/13 17:44:39


Gurobi 5.0.2 (win32) logging started 03/24/13 17:44:39


Gurobi 5.0.2 (win32) logging started 03/24/13 17:44:39


Gurobi 5.0.2 (win32) logging started 03/24/13 18:09:38


Gurobi 5.0.2 (win32) logging started 03/24/13 18:09:38


Gurobi 5.0.2 (win32) logging started 03/24/13 18:09:38


Gurobi 5.0.2 (win32) logging started 03/24/13 18:10:35


Gurobi 5.0.2 (win32) logging started 03/24/13 18:10:35


Gurobi 5.0.2 (win32) logging started 03/24/13 18:10:35


Gurobi 5.0.2 (win32) logging started 03/24/13 18:11:15


Gurobi 5.0.2 (win32) logging started 03/24/13 18:11:15


Gurobi 5.0.2 (win32) logging started 03/24/13 18:11:15


Gurobi 5.0.2 (win32) logging started 03/24/13 18:11:31


Gurobi 5.0.2 (win32) logging started 03/24/13 18:11:31


Gurobi 5.0.2 (win32) logging started 03/24/13 18:11:31


Gurobi 5.0.2 (win32) logging started 03/24/13 18:11:31


Gurobi 5.0.2 (win32) logging started 03/24/13 18:11:31


Gurobi 5.0.2 (win32) logging started 03/24/13 18:11:31


Gurobi 5.0.2 (win32) logging started 03/24/13 18:11:31


Gurobi 5.0.2 (win32) logging started 03/24/13 18:11:31


Gurobi 5.0.2 (win32) logging started 03/24/13 18:11:31


Gurobi 5.0.2 (win32) logging started 03/24/13 18:11:31


Gurobi 5.0.2 (win32) logging started 03/24/13 18:11:31


Gurobi 5.0.2 (win32) logging started 03/24/13 18:11:31


Gurobi 5.0.2 (win32) logging started 03/24/13 18:11:31


Gurobi 5.0.2 (win32) logging started 03/24/13 18:11:32


Gurobi 5.0.2 (win32) logging started 03/24/13 18:11:32


Gurobi 5.0.2 (win32) logging started 03/24/13 18:11:32


Gurobi 5.0.2 (win32) logging started 03/24/13 18:11:32


Gurobi 5.0.2 (win32) logging started 03/24/13 18:11:32


Gurobi 5.0.2 (win32) logging started 03/24/13 18:11:32


Gurobi 5.0.2 (win32) logging started 03/24/13 18:11:32


Gurobi 5.0.2 (win32) logging started 03/24/13 18:11:32


Gurobi 5.0.2 (win32) logging started 03/24/13 18:11:32


Gurobi 5.0.2 (win32) logging started 03/24/13 18:11:32


Gurobi 5.0.2 (win32) logging started 03/24/13 18:11:32


Gurobi 5.0.2 (win32) logging started 03/24/13 18:11:32


Gurobi 5.0.2 (win32) logging started 03/24/13 18:11:32


Gurobi 5.0.2 (win32) logging started 03/24/13 18:11:32


Gurobi 5.0.2 (win32) logging started 03/24/13 18:11:32


Gurobi 5.0.2 (win32) logging started 03/24/13 18:11:32


Gurobi 5.0.2 (win32) logging started 03/24/13 18:11:33


Gurobi 5.0.2 (win32) logging started 03/24/13 18:11:33


Gurobi 5.0.2 (win32) logging started 03/24/13 18:11:33


Gurobi 5.0.2 (win32) logging started 03/24/13 18:11:33


Gurobi 5.0.2 (win32) logging started 03/24/13 18:11:33


Gurobi 5.0.2 (win32) logging started 03/24/13 18:11:34


Gurobi 5.0.2 (win32) logging started 03/24/13 18:11:34


Gurobi 5.0.2 (win32) logging started 03/24/13 18:11:34


Gurobi 5.0.2 (win32) logging started 03/24/13 18:11:34


Gurobi 5.0.2 (win32) logging started 03/24/13 18:11:34


Gurobi 5.0.2 (win32) logging started 03/24/13 18:11:35


Gurobi 5.0.2 (win32) logging started 03/24/13 18:11:35


Gurobi 5.0.2 (win32) logging started 03/24/13 18:11:36


Gurobi 5.0.2 (win32) logging started 03/24/13 18:11:36


Gurobi 5.0.2 (win32) logging started 03/24/13 18:11:36


Gurobi 5.0.2 (win32) logging started 03/24/13 18:11:36


Gurobi 5.0.2 (win32) logging started 03/24/13 18:11:36


Gurobi 5.0.2 (win32) logging started 03/24/13 18:11:36


Gurobi 5.0.2 (win32) logging started 03/24/13 18:11:36


Gurobi 5.0.2 (win32) logging started 03/24/13 18:11:36


Gurobi 5.0.2 (win32) logging started 03/24/13 18:11:36


Gurobi 5.0.2 (win32) logging started 03/24/13 18:11:36


Gurobi 5.0.2 (win32) logging started 03/24/13 18:11:36


Gurobi 5.0.2 (win32) logging started 03/24/13 18:11:36


Gurobi 5.0.2 (win32) logging started 03/24/13 18:11:37


Gurobi 5.0.2 (win32) logging started 03/24/13 18:11:38


Gurobi 5.0.2 (win32) logging started 03/24/13 18:11:39


Gurobi 5.0.2 (win32) logging started 03/24/13 18:11:40


Gurobi 5.0.2 (win32) logging started 03/24/13 18:11:40


Gurobi 5.0.2 (win32) logging started 03/24/13 18:11:40


Gurobi 5.0.2 (win32) logging started 03/24/13 18:11:40


Gurobi 5.0.2 (win32) logging started 03/24/13 18:11:40


Gurobi 5.0.2 (win32) logging started 03/24/13 18:11:41


Gurobi 5.0.2 (win32) logging started 03/24/13 18:11:42


Gurobi 5.0.2 (win32) logging started 03/24/13 18:11:43


Gurobi 5.0.2 (win32) logging started 03/24/13 18:11:43


Gurobi 5.0.2 (win32) logging started 03/24/13 18:11:43


Gurobi 5.0.2 (win32) logging started 03/24/13 18:11:43


Gurobi 5.0.2 (win32) logging started 03/24/13 18:11:43


Gurobi 5.0.2 (win32) logging started 03/24/13 18:11:43


Gurobi 5.0.2 (win32) logging started 03/24/13 18:11:43


Gurobi 5.0.2 (win32) logging started 03/24/13 18:11:43


Gurobi 5.0.2 (win32) logging started 03/24/13 18:11:43


Gurobi 5.0.2 (win32) logging started 03/24/13 18:11:43


Gurobi 5.0.2 (win32) logging started 03/24/13 18:11:43


Gurobi 5.0.2 (win32) logging started 03/24/13 18:11:43


Gurobi 5.0.2 (win32) logging started 03/24/13 18:11:43


Gurobi 5.0.2 (win32) logging started 03/24/13 18:11:43


Gurobi 5.0.2 (win32) logging started 03/24/13 18:11:43


Gurobi 5.0.2 (win32) logging started 03/24/13 18:11:43


Gurobi 5.0.2 (win32) logging started 03/24/13 18:11:43


Gurobi 5.0.2 (win32) logging started 03/24/13 18:11:43


Gurobi 5.0.2 (win32) logging started 03/24/13 18:11:44


Gurobi 5.0.2 (win32) logging started 03/24/13 18:11:44


Gurobi 5.0.2 (win32) logging started 03/24/13 18:11:44


Gurobi 5.0.2 (win32) logging started 03/24/13 18:11:44


Gurobi 5.0.2 (win32) logging started 03/24/13 18:11:44


Gurobi 5.0.2 (win32) logging started 03/24/13 18:11:44


Gurobi 5.0.2 (win32) logging started 03/24/13 18:11:44


Gurobi 5.0.2 (win32) logging started 03/24/13 18:11:44


Gurobi 5.0.2 (win32) logging started 03/24/13 18:11:44


Gurobi 5.0.2 (win32) logging started 03/24/13 18:11:44


Gurobi 5.0.2 (win32) logging started 03/24/13 18:11:44


Gurobi 5.0.2 (win32) logging started 03/24/13 18:11:45


Gurobi 5.0.2 (win32) logging started 03/24/13 18:11:45


Gurobi 5.0.2 (win32) logging started 03/24/13 18:11:45


Gurobi 5.0.2 (win32) logging started 03/24/13 18:11:45


Gurobi 5.0.2 (win32) logging started 03/24/13 18:11:45


Gurobi 5.0.2 (win32) logging started 03/24/13 18:11:45


Gurobi 5.0.2 (win32) logging started 03/24/13 18:11:46


Gurobi 5.0.2 (win32) logging started 03/24/13 18:11:46


Gurobi 5.0.2 (win32) logging started 03/24/13 18:11:46


Gurobi 5.0.2 (win32) logging started 03/24/13 18:11:46


Gurobi 5.0.2 (win32) logging started 03/24/13 18:11:46


Gurobi 5.0.2 (win32) logging started 03/24/13 18:11:46


Gurobi 5.0.2 (win32) logging started 03/24/13 18:11:46


Gurobi 5.0.2 (win32) logging started 03/24/13 18:11:46


Gurobi 5.0.2 (win32) logging started 03/24/13 18:11:46


Gurobi 5.0.2 (win32) logging started 03/24/13 18:11:46


Gurobi 5.0.2 (win32) logging started 03/24/13 18:11:46


Gurobi 5.0.2 (win32) logging started 03/24/13 18:11:47


Gurobi 5.0.2 (win32) logging started 03/24/13 18:11:49


Gurobi 5.0.2 (win32) logging started 03/24/13 18:11:49


Gurobi 5.0.2 (win32) logging started 03/24/13 18:11:49


Gurobi 5.0.2 (win32) logging started 03/24/13 18:11:49


Gurobi 5.0.2 (win32) logging started 03/24/13 18:11:49


Gurobi 5.0.2 (win32) logging started 03/24/13 18:11:49


Gurobi 5.0.2 (win32) logging started 03/24/13 18:11:50


Gurobi 5.0.2 (win32) logging started 03/24/13 18:11:51


Gurobi 5.0.2 (win32) logging started 03/24/13 18:11:51


Gurobi 5.0.2 (win32) logging started 03/24/13 18:11:51


Gurobi 5.0.2 (win32) logging started 03/24/13 18:11:51


Gurobi 5.0.2 (win32) logging started 03/24/13 18:11:51


Gurobi 5.0.2 (win32) logging started 03/24/13 18:11:51


Gurobi 5.0.2 (win32) logging started 03/24/13 18:11:51


Gurobi 5.0.2 (win32) logging started 03/24/13 18:11:51


Gurobi 5.0.2 (win32) logging started 03/24/13 18:11:51


Gurobi 5.0.2 (win32) logging started 03/24/13 18:11:51


Gurobi 5.0.2 (win32) logging started 03/24/13 18:11:51


Gurobi 5.0.2 (win32) logging started 03/24/13 18:11:51


Gurobi 5.0.2 (win32) logging started 03/24/13 18:11:51


Gurobi 5.0.2 (win32) logging started 03/24/13 18:11:51


Gurobi 5.0.2 (win32) logging started 03/24/13 18:11:51


Gurobi 5.0.2 (win32) logging started 03/24/13 18:11:51


Gurobi 5.0.2 (win32) logging started 03/24/13 18:11:52


Gurobi 5.0.2 (win32) logging started 03/24/13 18:11:52


Gurobi 5.0.2 (win32) logging started 03/24/13 18:11:52


Gurobi 5.0.2 (win32) logging started 03/24/13 18:11:52


Gurobi 5.0.2 (win32) logging started 03/24/13 18:11:52


Gurobi 5.0.2 (win32) logging started 03/24/13 18:11:52


Gurobi 5.0.2 (win32) logging started 03/24/13 18:11:52


Gurobi 5.0.2 (win32) logging started 03/24/13 18:11:52


Gurobi 5.0.2 (win32) logging started 03/24/13 18:11:52


Gurobi 5.0.2 (win32) logging started 03/24/13 18:11:52


Gurobi 5.0.2 (win32) logging started 03/24/13 18:11:52


Gurobi 5.0.2 (win32) logging started 03/24/13 18:11:52


Gurobi 5.0.2 (win32) logging started 03/24/13 18:11:52


Gurobi 5.0.2 (win32) logging started 03/24/13 18:11:53


Gurobi 5.0.2 (win32) logging started 03/24/13 18:11:53


Gurobi 5.0.2 (win32) logging started 03/24/13 18:11:53


Gurobi 5.0.2 (win32) logging started 03/24/13 18:11:53


Gurobi 5.0.2 (win32) logging started 03/24/13 18:11:53


Gurobi 5.0.2 (win32) logging started 03/24/13 18:11:53


Gurobi 5.0.2 (win32) logging started 03/24/13 18:11:53


Gurobi 5.0.2 (win32) logging started 03/24/13 18:11:53


Gurobi 5.0.2 (win32) logging started 03/24/13 18:11:53


Gurobi 5.0.2 (win32) logging started 03/24/13 18:11:53


Gurobi 5.0.2 (win32) logging started 03/24/13 18:11:54


Gurobi 5.0.2 (win32) logging started 03/24/13 18:11:54


Gurobi 5.0.2 (win32) logging started 03/24/13 18:11:54


Gurobi 5.0.2 (win32) logging started 03/24/13 18:11:55


Gurobi 5.0.2 (win32) logging started 03/24/13 18:11:55


Gurobi 5.0.2 (win32) logging started 03/24/13 18:11:55


Gurobi 5.0.2 (win32) logging started 03/24/13 18:11:56


Gurobi 5.0.2 (win32) logging started 03/24/13 18:11:56


Gurobi 5.0.2 (win32) logging started 03/24/13 18:11:56


Gurobi 5.0.2 (win32) logging started 03/24/13 18:11:56


Gurobi 5.0.2 (win32) logging started 03/24/13 18:11:56


Gurobi 5.0.2 (win32) logging started 03/24/13 18:11:56


Gurobi 5.0.2 (win32) logging started 03/24/13 18:11:56


Gurobi 5.0.2 (win32) logging started 03/24/13 18:11:56


Gurobi 5.0.2 (win32) logging started 03/24/13 18:11:56


Gurobi 5.0.2 (win32) logging started 03/24/13 18:11:56


Gurobi 5.0.2 (win32) logging started 03/24/13 18:11:56


Gurobi 5.0.2 (win32) logging started 03/24/13 18:11:56


Gurobi 5.0.2 (win32) logging started 03/24/13 18:11:56


Gurobi 5.0.2 (win32) logging started 03/24/13 18:11:56


Gurobi 5.0.2 (win32) logging started 03/24/13 18:11:56


Gurobi 5.0.2 (win32) logging started 03/24/13 18:11:56


Gurobi 5.0.2 (win32) logging started 03/24/13 18:11:56


Gurobi 5.0.2 (win32) logging started 03/24/13 18:11:56


Gurobi 5.0.2 (win32) logging started 03/24/13 18:11:56


Gurobi 5.0.2 (win32) logging started 03/24/13 18:11:56


Gurobi 5.0.2 (win32) logging started 03/24/13 18:11:57


Gurobi 5.0.2 (win32) logging started 03/24/13 18:11:57


Gurobi 5.0.2 (win32) logging started 03/24/13 18:11:57


Gurobi 5.0.2 (win32) logging started 03/24/13 18:11:57


Gurobi 5.0.2 (win32) logging started 03/24/13 18:11:57


Gurobi 5.0.2 (win32) logging started 03/24/13 18:11:57


Gurobi 5.0.2 (win32) logging started 03/24/13 18:11:57


Gurobi 5.0.2 (win32) logging started 03/24/13 18:11:57


Gurobi 5.0.2 (win32) logging started 03/24/13 18:11:57


Gurobi 5.0.2 (win32) logging started 03/24/13 18:11:57


Gurobi 5.0.2 (win32) logging started 03/24/13 18:11:57


Gurobi 5.0.2 (win32) logging started 03/24/13 18:11:57


Gurobi 5.0.2 (win32) logging started 03/24/13 18:11:57


Gurobi 5.0.2 (win32) logging started 03/24/13 18:11:57


Gurobi 5.0.2 (win32) logging started 03/24/13 18:11:57


Gurobi 5.0.2 (win32) logging started 03/24/13 18:11:57


Gurobi 5.0.2 (win32) logging started 03/24/13 18:11:58

